&control
calculation = 'vc-relax'
nstep = 200
restart_mode='from_scratch'
prefix='qe'
outdir='out_qe'
pseudo_dir='./pseudo'
etot_conv_thr = 1.d-5
forc_conv_thr = 1.d-4
/
&SYSTEM
  ibrav = 0
  nat = 18
  ntyp = 3
  ecutwfc=60
  ecutrho=240
/
&electrons
  conv_thr = 1.0d-8
  electron_maxstep = 300
/
&ions
/
&cell
  cell_dofree = '2Dxy'
  cell_factor = 4
/
K_POINTS {automatic}
3 3 1 1 1 1
CELL_PARAMETERS {angstrom}
  7.248000000000000   0.000000000000000   0.000000000000000
 -3.624000876427817   6.276951620623693   0.000000000000000
  0.000000000000001   0.000000000000001  10.000000000000000
ATOMIC_SPECIES
   C   12.01060   C_paw.UPF
   B   10.81350   B_paw.UPF
   N   14.00650   N_paw.UPF
ATOMIC_POSITIONS {crystal}
X   0.0   0.0   0.0
X   0.0   0.333333333333333   0.0
X   0.0   0.666666666666667   0.0
X   0.333333333333333   0.0   0.0
X   0.333333333333333   0.333333333333333   0.0
X   0.333333333333333   0.666666666666667   0.0
X   0.666666666666667   0.0   0.0
X   0.666666666666667   0.333333333333333   0.0
X   0.666666666666667   0.666666666666667   0.0
X   0.111111   0.222222   0.0
X   0.111111   0.555556   0.0
X   0.111111   0.888889   0.0
X   0.444444   0.222222   0.0
X   0.444444   0.555556   0.0
X   0.444444   0.888889   0.0
X   0.777778   0.222222   0.0
X   0.777778   0.555556   0.0
X   0.777778   0.888889   0.0
